clingo version 5.5.2
Reading from stdin
Solving...
UNSATISFIABLE

Models       : 0
Calls        : 1
Time         : 2260.786s (Solving: 0.00s 1st Model: 0.00s Unsat: 0.00s)
CPU Time     : 753.312s

Choices      : 1       
Conflicts    : 2        (Analyzed: 1)
Restarts     : 0       
Problems     : 1        (Average Length: 0.00 Splits: 0)
Lemmas       : 1        (Deleted: 0)
  Binary     : 0        (Ratio:   0.00%)
  Ternary    : 0        (Ratio:   0.00%)
  Conflict   : 1        (Average Length:    1.0 Ratio: 100.00%) 
  Loop       : 0        (Average Length:    0.0 Ratio:   0.00%) 
  Other      : 0        (Average Length:    0.0 Ratio:   0.00%) 
Backjumps    : 1        (Average:  1.00 Max:   1 Sum:      1)
  Executed   : 1        (Average:  1.00 Max:   1 Sum:      1 Ratio: 100.00%)
  Bounded    : 0        (Average:  0.00 Max:   0 Sum:      0 Ratio:   0.00%)

Rules        : 289582  
Atoms        : 1758    
Bodies       : 283445  
Equivalences : 2142     (Atom=Atom: 246 Body=Body: 936 Other: 960)
Tight        : No       (SCCs: 1 Non-Hcfs: 0 Nodes: 263439 Gammas: 0)
Variables    : 270124   (Eliminated:    0 Frozen: 263559)
Constraints  : 1366133  (Binary:  80.2% Ternary:   0.1% Other:  19.8%)

